l=7605;
a=2;
setup_costs=[|0,0,
|1,1,
|0,0|];
setup_times=[|0,1,
|1,2,
|0,0|];
m=5;
min_cap=[0,0,0,0,0];
max_cap=[18,14,18,10,19];

initState=[1,1,2,1,1];
s=5;
m_a_s = [|1244,3663,5113,6224,7157,
|0,0,2535,3093,4804,
|0,0,0,5586,7115,
|0,5313,5724,7157,7579,
|0,1768,2728,4552,4878|];
m_a_e = [|3014,4751,5399,6497,7470,
|0,0,3072,4135,7147,
|0,0,0,6419,7574,
|0,5459,6643,7306,7605,
|0,2599,4458,4687,7184|];
n=250;
eligible_machine = [{2,1},
{1},
{1,3,5},
{2,1},
{3,1,2},
{3,4},
{2},
{2,5},
{2,3},
{4,2,3},
{3},
{2,5},
{2},
{1,3},
{1,3,5},
{4,5},
{2,5},
{2,3,4},
{1,2,5},
{1,4},
{3},
{5,2},
{1,4,5},
{4,2},
{3,5},
{1,5},
{3,2},
{1,5},
{1},
{3,1,2},
{3,4},
{4},
{1,5},
{4,2},
{4},
{4},
{3},
{1},
{1,3},
{3},
{5,2},
{5},
{5,1,2},
{4},
{5,1,2},
{2},
{2},
{1,2,4,5},
{2},
{3},
{4,1},
{1,3},
{3,1,2,4},
{4,2},
{1,4},
{4,5},
{1,2,3,5},
{4,2,3,5},
{4},
{5},
{3},
{3},
{4,2},
{5},
{5},
{2,1},
{4},
{5},
{1},
{2,1,3},
{5,2},
{5},
{3},
{4,1,2,3},
{3,5},
{1,2,3},
{2},
{5,1},
{4,2,5},
{2,5},
{5,3,4},
{3,1,4},
{5},
{5},
{3,5},
{4,2},
{1},
{1,5},
{3,4},
{5,3},
{3,1},
{4,1},
{1},
{3},
{2,5},
{4,5},
{5,4},
{2},
{4,2,3},
{4,1},
{1,5},
{4,2},
{1,3,5},
{3,4},
{5,1},
{3},
{4,1,3},
{3,1},
{1},
{1,3},
{1},
{1,4,5},
{5,2},
{4},
{4,5},
{3},
{2},
{2},
{2},
{1},
{3},
{3,2,5},
{3},
{2,4},
{3,2,5},
{2,1,3,5},
{1,4},
{5,3},
{5},
{3},
{1,2,4},
{5,1,3,4},
{4},
{1},
{3},
{2,5},
{3},
{5,2,4},
{4,5},
{5},
{2},
{4},
{1,2,3,5},
{2},
{2},
{1},
{4},
{3,2},
{1},
{3,1},
{3,2},
{1,3,5},
{5},
{1,2},
{5,2,4},
{4},
{1},
{5,2},
{1},
{2},
{2},
{3,2},
{5},
{5},
{2,1},
{2,1,4},
{5,2},
{1},
{2,4},
{3,1},
{5,3,4},
{1,2},
{1,4},
{2,3,5},
{4},
{4,5},
{3},
{5},
{4},
{5,1,3},
{2},
{5,3},
{5,1},
{5},
{2},
{3,2},
{3,2,4},
{4},
{2},
{4},
{4,3},
{3},
{1},
{5,3},
{3},
{4,3},
{4,1,5},
{3,4},
{3,2},
{2,1},
{1},
{5},
{2},
{1,2},
{1,3,5},
{5,1},
{1,2,5},
{5},
{1,3},
{5},
{3,2},
{1},
{1},
{1,2},
{1},
{4},
{5},
{4,5},
{3,4},
{2},
{2},
{1,2},
{3,4,5},
{5},
{1},
{5,4},
{5,1},
{4},
{4,1},
{3,2,5},
{1,5},
{3,1,2},
{3,2,4},
{4,1,3},
{2,3},
{2},
{3,1,5},
{2,3},
{3,1,2,5},
{4,3},
{2,5},
{2,3,4},
{2,3},
{5},
{5,2},
{4,1,5},
{1,2},
{4,2},
{3},
{5}];
earliest_start=[136,38,46,56,64,17,75,107,81,3,107,14,100,119,87,134,30,29,60,115,79,115,74,36,56,51,77,107,22,20,56,78,112,29,87,94,106,34,18,119,55,87,38,27,95,22,116,15,68,96,10,63,58,80,51,21,102,9,137,12,77,106,84,60,85,29,40,70,31,131,27,134,10,79,59,130,76,46,78,34,73,61,38,63,10,130,19,31,116,66,130,96,34,6,41,87,2,115,80,66,119,45,122,75,68,14,53,117,20,58,82,55,68,103,77,15,68,20,50,92,9,9,92,103,0,69,99,3,37,110,127,98,104,12,52,27,77,101,132,133,77,40,10,58,121,75,27,69,67,26,18,119,65,125,57,110,91,18,74,137,53,49,79,48,68,122,88,56,51,49,75,105,25,54,14,106,136,33,119,63,42,30,74,11,91,8,32,116,93,79,74,59,26,133,80,28,98,100,127,137,124,108,18,18,88,51,93,10,110,88,112,57,36,11,95,22,113,68,95,60,89,110,100,109,112,16,78,30,112,124,7,36,44,120,77,71,12,56,61,39,52,22,5,5,105,16,22,15,38,57];
latest_end=[143,41,54,68,70,18,82,116,96,10,112,24,117,127,90,150,39,45,76,129,92,134,77,41,60,58,79,117,28,30,63,90,119,41,89,110,110,40,21,123,56,99,45,33,97,25,135,20,79,102,16,79,71,91,64,26,114,11,145,13,92,119,101,67,87,33,44,73,40,136,38,135,22,90,73,143,87,53,80,50,82,74,54,65,14,137,22,40,117,81,143,99,46,9,47,88,13,116,89,74,138,53,129,80,78,17,55,118,21,65,92,58,69,111,86,30,71,30,51,101,11,18,94,115,5,77,102,12,48,117,132,103,109,16,53,37,84,108,137,143,84,42,19,62,131,84,29,72,80,36,34,132,66,136,67,114,101,32,75,140,54,61,80,54,73,129,89,67,62,59,86,116,31,57,18,107,138,44,120,75,49,31,87,17,103,16,40,124,102,94,77,64,30,136,99,35,99,101,128,145,131,116,30,19,90,55,98,24,119,100,113,70,49,16,104,36,125,83,109,70,102,119,118,122,117,17,83,35,115,132,18,39,57,128,92,86,19,67,64,48,55,28,17,8,112,20,32,27,44,72];
min_time=[4,2,5,8,6,1,5,6,9,6,3,8,9,7,2,9,5,9,10,9,7,10,3,3,3,5,2,6,6,6,4,9,5,8,2,9,3,4,2,4,1,7,4,6,2,3,10,3,7,4,4,9,7,9,7,5,10,2,6,1,9,10,10,4,2,4,3,2,6,3,7,1,7,6,8,10,6,7,2,10,6,10,9,2,3,5,3,6,1,8,10,2,9,2,6,1,7,1,5,8,10,8,7,5,8,3,2,1,1,7,9,3,1,7,5,9,2,9,1,7,2,7,2,9,4,6,3,6,10,7,4,5,3,4,1,9,4,4,5,10,4,2,6,4,9,7,2,3,7,7,10,8,1,8,7,3,7,9,1,3,1,7,1,5,3,5,1,7,6,7,6,8,5,2,4,1,2,8,1,7,5,1,10,4,7,7,5,5,8,8,2,5,4,3,10,7,1,1,1,5,7,5,7,1,2,3,4,9,5,7,1,9,9,5,8,10,8,8,8,7,10,6,10,9,5,1,5,3,2,7,10,2,7,7,10,10,5,9,3,5,3,6,10,2,7,3,7,9,5,10];
max_time=[10,10,10,10,10,10,10,10,10,10,10,10,10,10,10,10,10,10,10,10,10,10,10,10,10,10,10,10,10,10,10,10,10,10,10,10,10,10,10,10,10,10,10,10,10,10,10,10,10,10,10,10,10,10,10,10,10,10,10,10,10,10,10,10,10,10,10,10,10,10,10,10,10,10,10,10,10,10,10,10,10,10,10,10,10,10,10,10,10,10,10,10,10,10,10,10,10,10,10,10,10,10,10,10,10,10,10,10,10,10,10,10,10,10,10,10,10,10,10,10,10,10,10,10,10,10,10,10,10,10,10,10,10,10,10,10,10,10,10,10,10,10,10,10,10,10,10,10,10,10,10,10,10,10,10,10,10,10,10,10,10,10,10,10,10,10,10,10,10,10,10,10,10,10,10,10,10,10,10,10,10,10,10,10,10,10,10,10,10,10,10,10,10,10,10,10,10,10,10,10,10,10,10,10,10,10,10,10,10,10,10,10,10,10,10,10,10,10,10,10,10,10,10,10,10,10,10,10,10,10,10,10,10,10,10,10,10,10,10,10,10,10,10,10,10,10,10,10,10,10];
size=[3,1,4,5,5,4,5,5,2,5,3,1,3,4,5,5,5,1,4,4,3,3,4,4,4,3,1,5,5,3,4,3,1,4,2,5,4,3,4,5,2,4,4,1,3,5,3,1,4,4,5,1,1,3,2,3,1,5,4,3,3,2,3,2,5,5,4,1,3,5,2,3,3,5,1,1,2,2,2,1,2,1,4,5,2,2,2,3,4,4,5,2,1,5,5,4,4,2,5,3,4,2,4,4,1,4,5,2,3,5,4,2,2,3,3,4,3,1,3,1,3,2,1,3,3,1,4,5,4,5,1,4,5,4,2,3,5,3,3,3,5,4,3,2,2,5,1,3,5,2,5,5,2,3,5,2,3,3,1,1,1,4,4,1,4,1,4,4,4,2,1,3,3,2,5,5,2,3,5,1,3,5,3,3,4,5,3,4,3,3,5,5,5,1,4,3,4,1,2,4,2,5,3,4,2,5,2,2,5,3,3,4,1,3,5,5,1,3,1,3,5,1,4,1,1,4,3,3,3,5,4,4,1,4,5,4,3,2,2,3,4,5,4,4,2,4,2,3,1,5];
attribute=[1,1,1,2,1,2,1,1,2,2,1,2,1,2,2,2,2,1,2,2,2,2,2,2,2,1,2,2,2,2,1,2,2,2,1,1,1,1,1,2,1,1,2,1,1,2,2,1,2,2,2,1,2,1,2,1,2,1,2,2,2,1,2,2,2,2,1,2,2,2,1,1,2,1,1,2,1,1,1,2,1,1,1,2,1,2,1,2,1,1,2,1,1,2,2,2,1,1,1,1,1,2,2,1,1,2,2,1,1,1,1,2,2,2,2,1,1,1,2,2,1,1,2,2,2,1,2,1,2,2,1,2,2,1,1,1,2,2,1,2,2,2,2,2,2,1,1,2,1,2,2,1,2,2,2,1,1,2,1,1,2,2,2,2,1,2,2,2,2,1,1,1,1,1,2,2,2,1,1,1,2,1,2,1,1,2,1,2,1,1,2,2,2,1,1,2,2,1,2,1,2,1,2,2,2,2,1,2,2,2,1,2,2,2,2,1,1,1,2,2,2,2,2,2,2,1,1,2,1,2,1,2,2,1,1,1,1,2,2,2,2,1,2,1,1,1,2,2,1,1];

upper_bound_integer_objective=7500;
mult_factor_total_runtime=2;
mult_factor_finished_toolate=12;
mult_factor_total_setuptimes=0;
mult_factor_total_setupcosts=6;
running_time_bound=1367;
min_duration=1;
max_duration=10;
max_setup_time=2;
max_setup_cost=1;
